sat
(model 
  (define-fun p45 () Int
    9)
  (define-fun p46 () Int
    8)
  (define-fun p43 () Int
    1)
  (define-fun p87 () Int
    1)
  (define-fun p49 () Int
    1)
  (define-fun p56 () Int
    3)
  (define-fun p62 () Int
    7)
  (define-fun p78 () Int
    1)
  (define-fun p79 () Int
    1)
  (define-fun p13 () Int
    1)
  (define-fun p27 () Int
    9)
  (define-fun p37 () Int
    1)
  (define-fun p69 () Int
    2)
  (define-fun p36 () Int
    9)
  (define-fun p54 () Int
    9)
  (define-fun p68 () Int
    9)
  (define-fun p85 () Int
    3)
  (define-fun p97 () Int
    9)
  (define-fun p76 () Int
    1)
  (define-fun p39 () Int
    1)
  (define-fun p83 () Int
    9)
  (define-fun p88 () Int
    2)
  (define-fun p93 () Int
    1)
  (define-fun p99 () Int
    9)
  (define-fun p57 () Int
    1)
  (define-fun p55 () Int
    4)
  (define-fun p64 () Int
    1)
  (define-fun p66 () Int
    1)
  (define-fun p95 () Int
    1)
  (define-fun p73 () Int
    7)
  (define-fun p11 () Int
    7)
  (define-fun p23 () Int
    6)
  (define-fun p65 () Int
    9)
  (define-fun p33 () Int
    9)
  (define-fun p25 () Int
    9)
  (define-fun p91 () Int
    2)
  (define-fun p71 () Int
    5)
  (define-fun p61 () Int
    7)
  (define-fun p53 () Int
    9)
  (define-fun p41 () Int
    1)
  (define-fun p42 () Int
    9)
  (define-fun p82 () Int
    9)
  (define-fun p31 () Int
    8)
  (define-fun p22 () Int
    1)
  (define-fun p28 () Int
    1)
  (define-fun p48 () Int
    9)
  (define-fun p19 () Int
    9)
  (define-fun p17 () Int
    2)
  (define-fun p77 () Int
    9)
  (define-fun p34 () Int
    1)
  (define-fun p74 () Int
    9)
  (define-fun p44 () Int
    1)
  (define-fun p16 () Int
    9)
  (define-fun p15 () Int
    1)
  (define-fun p98 () Int
    6)
  (define-fun p96 () Int
    7)
  (define-fun p94 () Int
    9)
  (define-fun p92 () Int
    1)
  (define-fun p89 () Int
    7)
  (define-fun p86 () Int
    4)
  (define-fun p84 () Int
    8)
  (define-fun p81 () Int
    2)
  (define-fun p75 () Int
    3)
  (define-fun p72 () Int
    9)
  (define-fun p67 () Int
    7)
  (define-fun p63 () Int
    2)
  (define-fun p59 () Int
    9)
  (define-fun p58 () Int
    1)
  (define-fun p52 () Int
    4)
  (define-fun p51 () Int
    5)
  (define-fun p47 () Int
    6)
  (define-fun p38 () Int
    7)
  (define-fun p35 () Int
    6)
  (define-fun p32 () Int
    3)
  (define-fun p29 () Int
    6)
  (define-fun p26 () Int
    3)
  (define-fun p24 () Int
    2)
  (define-fun p21 () Int
    8)
  (define-fun p18 () Int
    9)
  (define-fun p14 () Int
    5)
  (define-fun p12 () Int
    2)
)
